Minimize
  obj: x0 + x1 + x2 + x3 + x4 + x5

Subject To
  c0: x0 + x1 + x3 + x5 = 37
  c1: x0 + x1 + x2 + x4 + x5 = 31
  c2: x1 + x2 + x3 + x5 = 42
  c3: x0 + x1 + x2 + x4 = 28
  c4: x0 + x4 = 6
  c5: x1 + x3 = 29
  c6: x0 + x3 + x4 + x5 = 26
  c7: x0 + x1 + x2 + x4 + x5 = 31

Bounds
  x0 >= 0
  x1 >= 0
  x2 >= 0
  x3 >= 0
  x4 >= 0
  x5 >= 0

Generals
  x0 x1 x2 x3 x4 x5

End
